NAME : local_8
TYPE : ATSP
DIMENSION : 27
EDGE_WEIGHT_TYPE : EXPLICIT
EDGE_WEIGHT_FORMAT : FULL_MATRIX
EDGE_WEIGHT_SECTION
0 815 598 522 583 607 528 10000000 10000000 804 1109 420 10000000 10000000 10000000 10000000 10000000 10000000 564 849 10000000 10000000 1054 10000000 958 10000000 10000000 
0 0 343 10000000 10000000 10000000 375 10000000 10000000 845 10000000 663 10000000 10000000 10000000 580 10000000 676 10000000 933 718 1057 10000000 10000000 951 10000000 10000000 
0 343 0 10000000 694 10000000 420 10000000 891 527 10000000 332 10000000 10000000 10000000 530 10000000 716 10000000 10000000 757 910 10000000 10000000 656 10000000 10000000 
0 10000000 10000000 0 10000000 305 805 10000000 10000000 10000000 813 918 10000000 931 10000000 10000000 10000000 10000000 379 714 10000000 10000000 682 795 10000000 10000000 10000000 
0 10000000 694 10000000 0 980 936 10000000 704 454 10000000 372 10000000 10000000 10000000 10000000 10000000 10000000 899 10000000 10000000 10000000 10000000 10000000 587 10000000 10000000 
0 10000000 10000000 305 980 0 10000000 10000000 10000000 10000000 838 972 10000000 1016 10000000 10000000 10000000 10000000 210 10000000 10000000 10000000 838 660 10000000 10000000 10000000 
0 375 420 805 936 10000000 0 10000000 10000000 915 10000000 587 10000000 10000000 10000000 872 10000000 970 10000000 623 1056 10000000 1038 10000000 10000000 10000000 10000000 
0 10000000 10000000 10000000 10000000 10000000 10000000 0 521 851 10000000 10000000 759 10000000 10000000 10000000 10000000 10000000 10000000 10000000 10000000 630 10000000 10000000 745 472 656 
0 10000000 891 10000000 704 10000000 10000000 521 0 417 10000000 769 10000000 10000000 10000000 820 10000000 981 10000000 10000000 993 706 10000000 10000000 278 854 1028 
0 845 527 10000000 454 10000000 915 851 417 0 10000000 404 10000000 10000000 10000000 624 10000000 858 10000000 10000000 892 791 10000000 10000000 172 10000000 10000000 
0 10000000 10000000 813 10000000 896 10000000 10000000 10000000 10000000 0 10000000 501 244 480 10000000 757 10000000 878 10000000 10000000 10000000 552 486 10000000 927 391 
0 663 332 918 372 972 587 10000000 769 404 10000000 0 10000000 10000000 10000000 761 10000000 971 945 10000000 10000000 1043 10000000 10000000 569 10000000 10000000 
0 10000000 10000000 10000000 10000000 10000000 10000000 759 10000000 10000000 501 10000000 0 408 261 10000000 464 1008 10000000 10000000 941 587 867 951 10000000 902 446 
0 10000000 10000000 966 10000000 1023 10000000 10000000 10000000 10000000 244 10000000 408 0 273 10000000 528 10000000 1011 10000000 10000000 950 479 718 10000000 10000000 532 
0 10000000 10000000 10000000 10000000 10000000 10000000 10000000 10000000 10000000 480 10000000 261 273 0 10000000 284 10000000 10000000 10000000 1072 770 684 965 10000000 10000000 611 
0 580 530 10000000 10000000 10000000 872 10000000 820 624 10000000 761 10000000 10000000 10000000 0 10000000 281 10000000 10000000 340 602 10000000 10000000 620 10000000 10000000 
0 10000000 10000000 10000000 10000000 10000000 10000000 10000000 10000000 10000000 757 10000000 464 528 284 10000000 0 994 10000000 10000000 926 793 824 10000000 10000000 10000000 880 
0 676 716 10000000 10000000 10000000 970 10000000 981 858 10000000 971 1007 10000000 10000000 281 992 0 10000000 10000000 144 525 10000000 10000000 836 10000000 10000000 
0 10000000 10000000 379 916 210 10000000 10000000 10000000 10000000 891 961 10000000 1011 10000000 10000000 10000000 10000000 0 10000000 10000000 10000000 885 641 10000000 10000000 1082 
0 933 10000000 714 10000000 10000000 623 10000000 10000000 10000000 10000000 10000000 10000000 10000000 10000000 10000000 10000000 10000000 10000000 0 10000000 10000000 860 10000000 10000000 10000000 10000000 
0 718 757 10000000 10000000 10000000 1089 10000000 993 892 10000000 10000000 946 10000000 1055 340 919 144 10000000 10000000 0 488 10000000 10000000 864 10000000 10000000 
0 1049 896 10000000 10000000 10000000 10000000 630 706 791 10000000 1040 587 950 770 602 793 525 10000000 10000000 488 0 10000000 10000000 715 10000000 856 
0 10000000 10000000 645 10000000 838 1027 10000000 10000000 10000000 552 10000000 867 479 684 10000000 824 10000000 885 823 10000000 10000000 0 798 10000000 10000000 936 
0 10000000 10000000 795 10000000 660 10000000 10000000 10000000 10000000 486 10000000 951 718 965 10000000 10000000 10000000 641 10000000 10000000 10000000 798 0 10000000 948 625 
0 951 656 10000000 587 10000000 10000000 745 278 172 10000000 569 10000000 10000000 10000000 620 10000000 836 10000000 10000000 864 715 10000000 10000000 0 10000000 10000000 
0 10000000 10000000 10000000 10000000 10000000 10000000 472 854 10000000 927 10000000 902 10000000 10000000 10000000 10000000 10000000 10000000 10000000 10000000 10000000 10000000 948 10000000 0 555 
0 10000000 10000000 10000000 10000000 10000000 10000000 10000000 10000000 10000000 10000000 10000000 10000000 10000000 10000000 10000000 10000000 10000000 10000000 10000000 10000000 10000000 10000000 10000000 10000000 10000000 0 
EOF